(declare-const |havoc:4:33| Int)
(declare-const havoc Int)
(declare-const |y':34| Int)
(declare-const |K:42| Int)
(declare-const |tmp___0':36| Int)
(declare-const |z':35| Int)
(declare-const tmp___0 Int)
(assert (and (<= (- havoc) 0)
               (or (not (and (<= (- |K:42|) 0) (<= |K:42| 0)))
                     (= (+ |y':34| (- |K:42|) (- havoc) -1) 0))
               (or (not (<= (+ (- |K:42|) 1) 0))
                     (= (+ |y':34| (- |K:42|) (- havoc) -1) 0))
               (or (not (and (<= (- |K:42|) 0) (<= |K:42| 0)))
                     (= (+ |z':35| (- |K:42|) (- havoc) -1) 0))
               (or (not (<= (+ (- |K:42|) 1) 0))
                     (= (+ |z':35| (- |K:42|) (- havoc) -1) 0))
               (or (and (= |K:42| 0) (= (+ (- |tmp___0':36|) tmp___0) 0)
                          (= (+ (- |z':35|) havoc 1) 0)
                          (= (+ (- |y':34|) havoc 1) 0))
                     (and (<= (+ (- |K:42|) 1) 0) (<= (- havoc) 0)
                            (= (+ (- |z':35|) |y':34|) 0)
                            (<= (+ (- |tmp___0':36|) 1) 0)
                            (<= (+ (- |z':35|) 2) 0))) (<= (- |K:42|) 0)
               (< (- |z':35|) 0) (< (- |y':34|) 0)
               (= (+ |z':35| (- |y':34|)) 0) (<= (- |havoc:4:33|) 0)
               (= |havoc:4:33| 0) (not (= (+ (- |z':35|) |y':34|) 0))))
(check-sat)
